job_count = 24 ;
duration = [|12, 9, 5|25, 13, 4|17, 16, 2|9, 8, 1|27, 5, 7|26, 3, 7|29, 10, 4|27, 3, 4|28, 5, 6|21, 3, 5|17, 7, 4|25, 4, 8|7, 6, 4|15, 2, 9|25, 8, 8|18, 11, 8|17, 15, 5|20, 4, 8|9, 7, 6|26, 15, 7|29, 11, 4|11, 16, 2|3, 12, 7|19, 10, 4|] ;
machine_count = 3 ;
cost = [|16, 29, 49|12, 30, 40|11, 28, 57|16, 34, 51|12, 29, 37|12, 28, 49|11, 31, 49|14, 35, 31|17, 23, 38|16, 37, 59|11, 29, 38|18, 23, 42|15, 30, 50|19, 30, 31|13, 27, 50|13, 23, 45|10, 28, 35|18, 39, 33|12, 26, 50|13, 24, 33|19, 29, 36|19, 39, 51|16, 30, 57|15, 25, 48|] ;
deadline = [53, 53, 53, 53, 53, 53, 53, 53, 53, 53, 53, 53, 53, 53, 53, 53, 53, 53, 53, 53, 53, 53, 53, 53] ;
release = [0, 0, 0, 0, 0, 0, 0, 0, 0, 0, 0, 0, 0, 0, 0, 0, 0, 0, 0, 0, 0, 0, 0, 0] ;
resource = [|4, 4, 4|9, 9, 9|7, 7, 7|2, 2, 2|2, 2, 2|7, 7, 7|4, 4, 4|2, 2, 2|2, 2, 2|1, 1, 1|7, 7, 7|9, 9, 9|7, 7, 7|4, 4, 4|1, 1, 1|3, 3, 3|5, 5, 5|7, 7, 7|4, 4, 4|8, 8, 8|1, 1, 1|6, 6, 6|4, 4, 4|5, 5, 5|] ;
capacities = [10, 10, 10] ;
